language ESSENCE' 1.0

letting C_FunctionND be
        [[0, 0, 0, 0, 0, 0, 0, 0, 0, 0, 0, 0, 0, 0, 0, 0; int(0..15)],
         [1, 0, 0, 0, 0, 0, 0, 0, 0, 0, 0, 0, 0, 0, 0, 0; int(0..15)],
         [1, 0, 0, 0, 0, 0, 0, 0, 0, 0, 0, 0, 0, 0, 0, 0; int(0..15)],
         [1, 0, 0, 0, 0, 0, 0, 0, 0, 0, 0, 0, 0, 0, 0, 0; int(0..15)],
         [1, 0, 0, 0, 0, 0, 0, 0, 0, 0, 0, 0, 0, 0, 0, 0; int(0..15)],
         [1, 0, 0, 0, 0, 0, 0, 0, 0, 0, 0, 0, 0, 0, 0, 0; int(0..15)],
         [1, 0, 0, 0, 0, 0, 0, 0, 0, 0, 0, 0, 0, 0, 0, 0; int(0..15)],
         [1, 0, 0, 0, 0, 0, 0, 0, 0, 0, 0, 0, 0, 0, 0, 0; int(0..15)],
         [0, 1, 1, 0, 0, 0, 0, 1, 0, 0, 0, 0, 0, 0, 0, 0; int(0..15)],
         [0, 1, 0, 1, 1, 0, 0, 0, 0, 0, 0, 0, 0, 0, 0, 0; int(0..15)],
         [0, 1, 0, 0, 0, 1, 1, 0, 0, 0, 0, 0, 0, 0, 0, 0; int(0..15)],
         [0, 0, 1, 1, 0, 0, 1, 0, 0, 0, 0, 0, 0, 0, 0, 0; int(0..15)],
         [0, 0, 1, 0, 1, 1, 0, 0, 0, 0, 0, 0, 0, 0, 0, 0; int(0..15)],
         [0, 0, 0, 1, 0, 1, 0, 1, 0, 0, 0, 0, 0, 0, 0, 0; int(0..15)],
         [0, 0, 0, 0, 1, 0, 1, 1, 0, 0, 0, 0, 0, 0, 0, 0; int(0..15)],
         [0, 0, 0, 0, 0, 0, 0, 0, 1, 1, 1, 1, 1, 1, 1, 0; int(0..15)];
             int(0..15)]
$ Visualisation for C_FunctionND
$ 0 0 0 0 0 0 0 0 0 0 0 0 0 0 0 0
$ 1 0 0 0 0 0 0 0 0 0 0 0 0 0 0 0
$ 1 0 0 0 0 0 0 0 0 0 0 0 0 0 0 0
$ 1 0 0 0 0 0 0 0 0 0 0 0 0 0 0 0
$ 1 0 0 0 0 0 0 0 0 0 0 0 0 0 0 0
$ 1 0 0 0 0 0 0 0 0 0 0 0 0 0 0 0
$ 1 0 0 0 0 0 0 0 0 0 0 0 0 0 0 0
$ 1 0 0 0 0 0 0 0 0 0 0 0 0 0 0 0
$ 0 1 1 0 0 0 0 1 0 0 0 0 0 0 0 0
$ 0 1 0 1 1 0 0 0 0 0 0 0 0 0 0 0
$ 0 1 0 0 0 1 1 0 0 0 0 0 0 0 0 0
$ 0 0 1 1 0 0 1 0 0 0 0 0 0 0 0 0
$ 0 0 1 0 1 1 0 0 0 0 0 0 0 0 0 0
$ 0 0 0 1 0 1 0 1 0 0 0 0 0 0 0 0
$ 0 0 0 0 1 0 1 1 0 0 0 0 0 0 0 0
$ 0 0 0 0 0 0 0 0 1 1 1 1 1 1 1 0

letting J_FunctionND be
        [[0, 1, 2, 3, 4, 5, 6, 7, 8, 9, 10, 11, 12, 13, 14, 15; int(0..15)],
         [1, 1, 8, 9, 9, 10, 10, 8, 8, 9, 10, 15, 15, 15, 15, 15; int(0..15)],
         [2, 8, 2, 11, 12, 12, 11, 8, 8, 15, 15, 11, 12, 15, 15, 15; int(0..15)],
         [3, 9, 11, 3, 9, 13, 11, 13, 15, 9, 15, 11, 15, 13, 15, 15; int(0..15)],
         [4, 9, 12, 9, 4, 12, 14, 14, 15, 9, 15, 15, 12, 15, 14, 15; int(0..15)],
         [5, 10, 12, 13, 12, 5, 10, 13, 15, 15, 10, 15, 12, 13, 15, 15; int(0..15)],
         [6, 10, 11, 11, 14, 10, 6, 14, 15, 15, 10, 11, 15, 15, 14, 15; int(0..15)],
         [7, 8, 8, 13, 14, 13, 14, 7, 8, 15, 15, 15, 15, 13, 14, 15; int(0..15)],
         [8, 8, 8, 15, 15, 15, 15, 8, 8, 15, 15, 15, 15, 15, 15, 15; int(0..15)],
         [9, 9, 15, 9, 9, 15, 15, 15, 15, 9, 15, 15, 15, 15, 15, 15; int(0..15)],
         [10, 10, 15, 15, 15, 10, 10, 15, 15, 15, 10, 15, 15, 15, 15, 15; int(0..15)],
         [11, 15, 11, 11, 15, 15, 11, 15, 15, 15, 15, 11, 15, 15, 15, 15; int(0..15)],
         [12, 15, 12, 15, 12, 12, 15, 15, 15, 15, 15, 15, 12, 15, 15, 15; int(0..15)],
         [13, 15, 15, 13, 15, 13, 15, 13, 15, 15, 15, 15, 15, 13, 15, 15; int(0..15)],
         [14, 15, 15, 15, 14, 15, 14, 14, 15, 15, 15, 15, 15, 15, 14, 15; int(0..15)],
         [15, 15, 15, 15, 15, 15, 15, 15, 15, 15, 15, 15, 15, 15, 15, 15; int(0..15)];
             int(0..15)]
$ Visualisation for J_FunctionND
$  0  1  2  3  4  5  6  7  8  9 10 11 12 13 14 15
$  1  1  8  9  9 10 10  8  8  9 10 15 15 15 15 15
$  2  8  2 11 12 12 11  8  8 15 15 11 12 15 15 15
$  3  9 11  3  9 13 11 13 15  9 15 11 15 13 15 15
$  4  9 12  9  4 12 14 14 15  9 15 15 12 15 14 15
$  5 10 12 13 12  5 10 13 15 15 10 15 12 13 15 15
$  6 10 11 11 14 10  6 14 15 15 10 11 15 15 14 15
$  7  8  8 13 14 13 14  7  8 15 15 15 15 13 14 15
$  8  8  8 15 15 15 15  8  8 15 15 15 15 15 15 15
$  9  9 15  9  9 15 15 15 15  9 15 15 15 15 15 15
$ 10 10 15 15 15 10 10 15 15 15 10 15 15 15 15 15
$ 11 15 11 11 15 15 11 15 15 15 15 11 15 15 15 15
$ 12 15 12 15 12 12 15 15 15 15 15 15 12 15 15 15
$ 13 15 15 13 15 13 15 13 15 15 15 15 15 13 15 15
$ 14 15 15 15 14 15 14 14 15 15 15 15 15 15 14 15
$ 15 15 15 15 15 15 15 15 15 15 15 15 15 15 15 15

letting M_FunctionND be
        [[0, 0, 0, 0, 0, 0, 0, 0, 0, 0, 0, 0, 0, 0, 0, 0; int(0..15)],
         [0, 1, 0, 0, 0, 0, 0, 0, 1, 1, 1, 0, 0, 0, 0, 1; int(0..15)],
         [0, 0, 2, 0, 0, 0, 0, 0, 2, 0, 0, 2, 2, 0, 0, 2; int(0..15)],
         [0, 0, 0, 3, 0, 0, 0, 0, 0, 3, 0, 3, 0, 3, 0, 3; int(0..15)],
         [0, 0, 0, 0, 4, 0, 0, 0, 0, 4, 0, 0, 4, 0, 4, 4; int(0..15)],
         [0, 0, 0, 0, 0, 5, 0, 0, 0, 0, 5, 0, 5, 5, 0, 5; int(0..15)],
         [0, 0, 0, 0, 0, 0, 6, 0, 0, 0, 6, 6, 0, 0, 6, 6; int(0..15)],
         [0, 0, 0, 0, 0, 0, 0, 7, 7, 0, 0, 0, 0, 7, 7, 7; int(0..15)],
         [0, 1, 2, 0, 0, 0, 0, 7, 8, 1, 1, 2, 2, 7, 7, 8; int(0..15)],
         [0, 1, 0, 3, 4, 0, 0, 0, 1, 9, 1, 3, 4, 3, 4, 9; int(0..15)],
         [0, 1, 0, 0, 0, 5, 6, 0, 1, 1, 10, 6, 5, 5, 6, 10; int(0..15)],
         [0, 0, 2, 3, 0, 0, 6, 0, 2, 3, 6, 11, 2, 3, 6, 11; int(0..15)],
         [0, 0, 2, 0, 4, 5, 0, 0, 2, 4, 5, 2, 12, 5, 4, 12; int(0..15)],
         [0, 0, 0, 3, 0, 5, 0, 7, 7, 3, 5, 3, 5, 13, 7, 13; int(0..15)],
         [0, 0, 0, 0, 4, 0, 6, 7, 7, 4, 6, 6, 4, 7, 14, 14; int(0..15)],
         [0, 1, 2, 3, 4, 5, 6, 7, 8, 9, 10, 11, 12, 13, 14, 15; int(0..15)];
             int(0..15)]
$ Visualisation for M_FunctionND
$  0  0  0  0  0  0  0  0  0  0  0  0  0  0  0  0
$  0  1  0  0  0  0  0  0  1  1  1  0  0  0  0  1
$  0  0  2  0  0  0  0  0  2  0  0  2  2  0  0  2
$  0  0  0  3  0  0  0  0  0  3  0  3  0  3  0  3
$  0  0  0  0  4  0  0  0  0  4  0  0  4  0  4  4
$  0  0  0  0  0  5  0  0  0  0  5  0  5  5  0  5
$  0  0  0  0  0  0  6  0  0  0  6  6  0  0  6  6
$  0  0  0  0  0  0  0  7  7  0  0  0  0  7  7  7
$  0  1  2  0  0  0  0  7  8  1  1  2  2  7  7  8
$  0  1  0  3  4  0  0  0  1  9  1  3  4  3  4  9
$  0  1  0  0  0  5  6  0  1  1 10  6  5  5  6 10
$  0  0  2  3  0  0  6  0  2  3  6 11  2  3  6 11
$  0  0  2  0  4  5  0  0  2  4  5  2 12  5  4 12
$  0  0  0  3  0  5  0  7  7  3  5  3  5 13  7 13
$  0  0  0  0  4  0  6  7  7  4  6  6  4  7 14 14
$  0  1  2  3  4  5  6  7  8  9 10 11 12 13 14 15

letting R_Function1D be [0, 1, 1, 1, 1, 1, 1, 1, 2, 2, 2, 2, 2, 2, 2, 3; int(0..15)]
